words_hard_train/1441.qaiger
aag 113 23 0 1 90
2
4
8
12
16
20
24
26
34
36
44
46
54
56
64
66
74
76
84
86
108
110
184
227
6 3 5
10 7 8
14 10 12
18 15 17
22 19 21
28 24 27
30 25 26
32 29 31
38 34 37
40 35 36
42 39 41
48 44 47
50 45 46
52 49 51
58 54 57
60 55 56
62 59 61
68 64 67
70 65 66
72 69 71
78 74 77
80 75 76
82 79 81
88 84 87
90 85 86
92 89 91
94 82 92
96 72 94
98 62 96
100 52 98
102 42 100
104 32 102
106 23 104
112 108 111
114 109 110
116 113 115
118 107 116
120 14 16
122 121 19
124 43 101
126 125 103
128 123 127
130 18 20
132 131 23
134 33 103
136 135 105
138 132 137
140 129 139
142 122 126
144 11 13
146 145 15
148 53 99
150 149 101
152 147 150
154 143 153
156 146 151
158 6 9
160 159 11
162 63 97
164 163 99
166 160 165
168 157 167
170 73 95
172 171 97
174 2 4
176 175 7
178 93 3
180 179 95
182 92 2
186 183 184
188 186 83
190 180 189
192 177 191
194 172 193
196 176 190
198 195 197
200 161 164
202 198 201
204 168 203
206 154 205
208 140 207
210 133 136
212 209 211
214 118 212
216 117 213
218 215 217
220 22 105
222 218 221
224 107 216
226 223 225
i0 1 x1[2]
i1 1 x1[3]
i2 1 x1[4]
i3 1 x1[5]
i4 1 x1[6]
i5 1 x1[7]
i6 1 x2[6]
i7 2 y1[6]
i8 1 x2[5]
i9 2 y1[5]
i10 1 x2[4]
i11 2 y1[4]
i12 1 x2[3]
i13 2 y1[3]
i14 1 x2[2]
i15 2 y1[2]
i16 1 x2[0]
i17 2 y1[0]
i18 1 x2[1]
i19 2 y1[1]
i20 1 x2[7]
i21 2 y1[7]
i22 1 x1[1]
o0 bv[0]
c
simplified
  <=
    xor
      2 y1
      1 x2
    subtract
      -231
      >> 1
        1 x1
