words_hard_train/1441.qaiger.qdimacs
p cnf 113 271
a 32 1 2 4 37 6 8 10 42 12 17 22 54 27 92 0
e 3 5 7 9 11 13 14 15 16 18 19 20 21 23 24 25 26 28 29 30 31 33 34 35 36 38 39 40 41 43 44 45 46 47 48 49 50 51 52 53 55 56 57 58 59 60 61 62 63 64 65 66 67 68 69 70 71 72 73 74 75 76 77 78 79 80 81 82 83 84 85 86 87 88 89 90 91 93 94 95 96 97 98 99 100 101 102 103 104 105 106 107 108 109 110 111 112 113 0
1 2 3 0
-1 -3 0
-2 -3 0
3 -4 5 0
-3 -5 0
4 -5 0
-5 -6 7 0
5 -7 0
6 -7 0
7 8 9 0
-7 -9 0
-8 -9 0
9 10 11 0
-9 -11 0
-10 -11 0
-12 13 14 0
12 -14 0
-13 -14 0
12 -13 15 0
-12 -15 0
13 -15 0
14 15 16 0
-14 -16 0
-15 -16 0
-17 18 19 0
17 -19 0
-18 -19 0
17 -18 20 0
-17 -20 0
18 -20 0
19 20 21 0
-19 -21 0
-20 -21 0
-22 23 24 0
22 -24 0
-23 -24 0
22 -23 25 0
-22 -25 0
23 -25 0
24 25 26 0
-24 -26 0
-25 -26 0
-27 28 29 0
27 -29 0
-28 -29 0
27 -28 30 0
-27 -30 0
28 -30 0
29 30 31 0
-29 -31 0
-30 -31 0
-32 33 34 0
32 -34 0
-33 -34 0
32 -33 35 0
-32 -35 0
33 -35 0
34 35 36 0
-34 -36 0
-35 -36 0
-37 38 39 0
37 -39 0
-38 -39 0
37 -38 40 0
-37 -40 0
38 -40 0
39 40 41 0
-39 -41 0
-40 -41 0
-42 43 44 0
42 -44 0
-43 -44 0
42 -43 45 0
-42 -45 0
43 -45 0
44 45 46 0
-44 -46 0
-45 -46 0
-41 -46 47 0
41 -47 0
46 -47 0
-36 -47 48 0
36 -48 0
47 -48 0
-31 -48 49 0
31 -49 0
48 -49 0
-26 -49 50 0
26 -50 0
49 -50 0
-21 -50 51 0
21 -51 0
50 -51 0
-16 -51 52 0
16 -52 0
51 -52 0
11 -52 53 0
-11 -53 0
52 -53 0
-54 55 56 0
54 -56 0
-55 -56 0
54 -55 57 0
-54 -57 0
55 -57 0
56 57 58 0
-56 -58 0
-57 -58 0
53 -58 59 0
-53 -59 0
58 -59 0
-7 -8 60 0
7 -60 0
8 -60 0
60 9 61 0
-60 -61 0
-9 -61 0
21 50 62 0
-21 -62 0
-50 -62 0
62 51 63 0
-62 -63 0
-51 -63 0
61 63 64 0
-61 -64 0
-63 -64 0
-9 -10 65 0
9 -65 0
10 -65 0
65 11 66 0
-65 -66 0
-11 -66 0
16 51 67 0
-16 -67 0
-51 -67 0
67 52 68 0
-67 -68 0
-52 -68 0
-66 68 69 0
66 -69 0
-68 -69 0
64 69 70 0
-64 -70 0
-69 -70 0
-61 -63 71 0
61 -71 0
63 -71 0
5 6 72 0
-5 -72 0
-6 -72 0
72 7 73 0
-72 -73 0
-7 -73 0
26 49 74 0
-26 -74 0
-49 -74 0
74 50 75 0
-74 -75 0
-50 -75 0
73 -75 76 0
-73 -76 0
75 -76 0
71 76 77 0
-71 -77 0
-76 -77 0
-73 75 78 0
73 -78 0
-75 -78 0
-3 4 79 0
3 -79 0
-4 -79 0
79 5 80 0
-79 -80 0
-5 -80 0
31 48 81 0
-31 -81 0
-48 -81 0
81 49 82 0
-81 -82 0
-49 -82 0
-80 82 83 0
80 -83 0
-82 -83 0
78 83 84 0
-78 -84 0
-83 -84 0
36 47 85 0
-36 -85 0
-47 -85 0
85 48 86 0
-85 -86 0
-48 -86 0
-1 -2 87 0
1 -87 0
2 -87 0
87 3 88 0
-87 -88 0
-3 -88 0
46 1 89 0
-46 -89 0
-1 -89 0
89 47 90 0
-89 -90 0
-47 -90 0
-46 -1 91 0
46 -91 0
1 -91 0
91 -92 93 0
-91 -93 0
92 -93 0
-93 41 94 0
93 -94 0
-41 -94 0
-90 94 95 0
90 -95 0
-94 -95 0
88 95 96 0
-88 -96 0
-95 -96 0
-86 96 97 0
86 -97 0
-96 -97 0
-88 -95 98 0
88 -98 0
95 -98 0
97 98 99 0
-97 -99 0
-98 -99 0
80 -82 100 0
-80 -100 0
82 -100 0
-99 100 101 0
99 -101 0
-100 -101 0
-84 101 102 0
84 -102 0
-101 -102 0
-77 102 103 0
77 -103 0
-102 -103 0
-70 103 104 0
70 -104 0
-103 -104 0
66 -68 105 0
-66 -105 0
68 -105 0
104 105 106 0
-104 -106 0
-105 -106 0
-59 -106 107 0
59 -107 0
106 -107 0
58 106 108 0
-58 -108 0
-106 -108 0
107 108 109 0
-107 -109 0
-108 -109 0
-11 52 110 0
11 -110 0
-52 -110 0
-109 110 111 0
109 -111 0
-110 -111 0
53 -108 112 0
-53 -112 0
108 -112 0
111 112 113 0
-111 -113 0
-112 -113 0
-113 0
